28 28
22
3 3 8 3
4 3 8 0
3 5 3 19
3 6 5 0
7 3 0 13
8 3 7 13
3 9 0 19
10 3 15 13
3 11 25 13
16 3 12 0
17 3 11 3
21 3 4 16
23 3 5 10
4 3 0 16
4 4 24 24
5 4 0 0
8 4 16 24
13 4 3 24
23 4 5 6
6 5 6 19
5 9 0 4
13 5 12 19
